c nIsolatedPIs 0
c maxPI 32
p cnf 238 619
c gate 33 -1 17 0
-1 -33 0
17 -33 0
1 -17 33 0
c gate 34 -2 18 0
-2 -34 0
18 -34 0
2 -18 34 0
c gate 35 -33 -34 0
-33 -35 0
-34 -35 0
33 34 35 0
c gate 36 3 -19 0
3 -36 0
-19 -36 0
-3 19 36 0
c gate 37 -35 -36 0
-35 -37 0
-36 -37 0
35 36 37 0
c gate 38 -3 19 0
-3 -38 0
19 -38 0
3 -19 38 0
c gate 39 2 -18 0
2 -39 0
-18 -39 0
-2 18 39 0
c gate 40 37 -39 0
37 -40 0
-39 -40 0
-37 39 40 0
c gate 41 -38 -40 0
-38 -41 0
-40 -41 0
38 40 41 0
c gate 42 37 41 0
37 -42 0
41 -42 0
-37 -41 42 0
c gate 43 33 39 0
33 -43 0
39 -43 0
-33 -39 43 0
c gate 44 -15 -31 0
-15 -44 0
-31 -44 0
15 31 44 0
c gate 45 15 31 0
15 -45 0
31 -45 0
-15 -31 45 0
c gate 46 -44 -45 0
-44 -46 0
-45 -46 0
44 45 46 0
c gate 47 -14 -30 0
-14 -47 0
-30 -47 0
14 30 47 0
c gate 48 14 30 0
14 -48 0
30 -48 0
-14 -30 48 0
c gate 49 -47 -48 0
-47 -49 0
-48 -49 0
47 48 49 0
c gate 50 -13 -29 0
-13 -50 0
-29 -50 0
13 29 50 0
c gate 51 11 27 0
11 -51 0
27 -51 0
-11 -27 51 0
c gate 52 -10 -26 0
-10 -52 0
-26 -52 0
10 26 52 0
c gate 53 10 26 0
10 -53 0
26 -53 0
-10 -26 53 0
c gate 54 9 25 0
9 -54 0
25 -54 0
-9 -25 54 0
c gate 55 -53 -54 0
-53 -55 0
-54 -55 0
53 54 55 0
c gate 56 8 24 0
8 -56 0
24 -56 0
-8 -24 56 0
c gate 57 -7 -23 0
-7 -57 0
-23 -57 0
7 23 57 0
c gate 58 -56 57 0
-56 -58 0
57 -58 0
56 -57 58 0
c gate 59 -8 -24 0
-8 -59 0
-24 -59 0
8 24 59 0
c gate 60 -9 -25 0
-9 -60 0
-25 -60 0
9 25 60 0
c gate 61 -59 -60 0
-59 -61 0
-60 -61 0
59 60 61 0
c gate 62 -58 61 0
-58 -62 0
61 -62 0
58 -61 62 0
c gate 63 55 -62 0
55 -63 0
-62 -63 0
-55 62 63 0
c gate 64 -52 -63 0
-52 -64 0
-63 -64 0
52 63 64 0
c gate 65 -6 -22 0
-6 -65 0
-22 -65 0
6 22 65 0
c gate 66 5 21 0
5 -66 0
21 -66 0
-5 -21 66 0
c gate 67 1 17 0
1 -67 0
17 -67 0
-1 -17 67 0
c gate 68 2 67 0
2 -68 0
67 -68 0
-2 -67 68 0
c gate 69 -18 -68 0
-18 -69 0
-68 -69 0
18 68 69 0
c gate 70 -2 -67 0
-2 -70 0
-67 -70 0
2 67 70 0
c gate 71 -3 -19 0
-3 -71 0
-19 -71 0
3 19 71 0
c gate 72 -70 -71 0
-70 -72 0
-71 -72 0
70 71 72 0
c gate 73 -69 72 0
-69 -73 0
72 -73 0
69 -72 73 0
c gate 74 4 20 0
4 -74 0
20 -74 0
-4 -20 74 0
c gate 75 3 19 0
3 -75 0
19 -75 0
-3 -19 75 0
c gate 76 -74 -75 0
-74 -76 0
-75 -76 0
74 75 76 0
c gate 77 -73 76 0
-73 -77 0
76 -77 0
73 -76 77 0
c gate 78 -4 -20 0
-4 -78 0
-20 -78 0
4 20 78 0
c gate 79 -5 -21 0
-5 -79 0
-21 -79 0
5 21 79 0
c gate 80 -78 -79 0
-78 -80 0
-79 -80 0
78 79 80 0
c gate 81 -77 80 0
-77 -81 0
80 -81 0
77 -80 81 0
c gate 82 -66 -81 0
-66 -82 0
-81 -82 0
66 81 82 0
c gate 83 -65 -82 0
-65 -83 0
-82 -83 0
65 82 83 0
c gate 84 7 -23 0
7 -84 0
-23 -84 0
-7 23 84 0
c gate 85 -7 23 0
-7 -85 0
23 -85 0
7 -23 85 0
c gate 86 -84 -85 0
-84 -86 0
-85 -86 0
84 85 86 0
c gate 87 6 22 0
6 -87 0
22 -87 0
-6 -22 87 0
c gate 88 -86 -87 0
-86 -88 0
-87 -88 0
86 87 88 0
c gate 89 -83 88 0
-83 -89 0
88 -89 0
83 -88 89 0
c gate 90 -56 -59 0
-56 -90 0
-59 -90 0
56 59 90 0
c gate 91 89 90 0
89 -91 0
90 -91 0
-89 -90 91 0
c gate 92 55 91 0
55 -92 0
91 -92 0
-55 -91 92 0
c gate 93 64 -92 0
64 -93 0
-92 -93 0
-64 92 93 0
c gate 94 -51 -93 0
-51 -94 0
-93 -94 0
51 93 94 0
c gate 95 -11 -27 0
-11 -95 0
-27 -95 0
11 27 95 0
c gate 96 12 28 0
12 -96 0
28 -96 0
-12 -28 96 0
c gate 97 -12 -28 0
-12 -97 0
-28 -97 0
12 28 97 0
c gate 98 -96 -97 0
-96 -98 0
-97 -98 0
96 97 98 0
c gate 99 -95 98 0
-95 -99 0
98 -99 0
95 -98 99 0
c gate 100 -94 99 0
-94 -100 0
99 -100 0
94 -99 100 0
c gate 101 13 29 0
13 -101 0
29 -101 0
-13 -29 101 0
c gate 102 -96 -101 0
-96 -102 0
-101 -102 0
96 101 102 0
c gate 103 -100 102 0
-100 -103 0
102 -103 0
100 -102 103 0
c gate 104 -50 -103 0
-50 -104 0
-103 -104 0
50 103 104 0
c gate 105 49 -104 0
49 -105 0
-104 -105 0
-49 104 105 0
c gate 106 -47 -105 0
-47 -106 0
-105 -106 0
47 105 106 0
c gate 107 46 -106 0
46 -107 0
-106 -107 0
-46 106 107 0
c gate 108 -44 -107 0
-44 -108 0
-107 -108 0
44 107 108 0
c gate 109 -16 -32 0
-16 -109 0
-32 -109 0
16 32 109 0
c gate 110 16 32 0
16 -110 0
32 -110 0
-16 -32 110 0
c gate 111 -109 -110 0
-109 -111 0
-110 -111 0
109 110 111 0
c gate 112 -108 111 0
-108 -112 0
111 -112 0
108 -111 112 0
c gate 113 49 102 0
49 -113 0
102 -113 0
-49 -102 113 0
c gate 114 -47 -113 0
-47 -114 0
-113 -114 0
47 113 114 0
c gate 115 46 114 0
46 -115 0
114 -115 0
-46 -114 115 0
c gate 116 -45 -115 0
-45 -116 0
-115 -116 0
45 115 116 0
c gate 117 112 -116 0
112 -117 0
-116 -117 0
-112 116 117 0
c gate 118 -43 -117 0
-43 -118 0
-117 -118 0
43 117 118 0
c gate 119 -42 -118 0
-42 -119 0
-118 -119 0
42 118 119 0
c gate 120 111 116 0
111 -120 0
116 -120 0
-111 -116 120 0
c gate 121 108 120 0
108 -121 0
120 -121 0
-108 -120 121 0
c gate 122 118 -121 0
118 -122 0
-121 -122 0
-118 121 122 0
c gate 123 -49 -102 0
-49 -123 0
-102 -123 0
49 102 123 0
c gate 124 -113 -123 0
-113 -124 0
-123 -124 0
113 123 124 0
c gate 125 -49 104 0
-49 -125 0
104 -125 0
49 -104 125 0
c gate 126 -105 -125 0
-105 -126 0
-125 -126 0
105 125 126 0
c gate 127 -124 126 0
-124 -127 0
126 -127 0
124 -126 127 0
c gate 128 124 -126 0
124 -128 0
-126 -128 0
-124 126 128 0
c gate 129 -127 -128 0
-127 -129 0
-128 -129 0
127 128 129 0
c gate 130 64 99 0
64 -130 0
99 -130 0
-64 -99 130 0
c gate 131 94 130 0
94 -131 0
130 -131 0
-94 -130 131 0
c gate 132 129 131 0
129 -132 0
131 -132 0
-129 -131 132 0
c gate 133 108 -111 0
108 -133 0
-111 -133 0
-108 111 133 0
c gate 134 -112 -133 0
-112 -134 0
-133 -134 0
112 133 134 0
c gate 135 -111 -116 0
-111 -135 0
-116 -135 0
111 116 135 0
c gate 136 -120 -135 0
-120 -136 0
-135 -136 0
120 135 136 0
c gate 137 -134 136 0
-134 -137 0
136 -137 0
134 -136 137 0
c gate 138 134 -136 0
134 -138 0
-136 -138 0
-134 136 138 0
c gate 139 -46 -114 0
-46 -139 0
-114 -139 0
46 114 139 0
c gate 140 -115 -139 0
-115 -140 0
-139 -140 0
115 139 140 0
c gate 141 -46 106 0
-46 -141 0
106 -141 0
46 -106 141 0
c gate 142 -107 -141 0
-107 -142 0
-141 -142 0
107 141 142 0
c gate 143 -140 -142 0
-140 -143 0
-142 -143 0
140 142 143 0
c gate 144 140 142 0
140 -144 0
142 -144 0
-140 -142 144 0
c gate 145 -50 -101 0
-50 -145 0
-101 -145 0
50 101 145 0
c gate 146 100 -145 0
100 -146 0
-145 -146 0
-100 145 146 0
c gate 147 -128 -146 0
-128 -147 0
-146 -147 0
128 146 147 0
c gate 148 -144 -147 0
-144 -148 0
-147 -148 0
144 147 148 0
c gate 149 -143 -148 0
-143 -149 0
-148 -149 0
143 148 149 0
c gate 150 -138 -149 0
-138 -150 0
-149 -150 0
138 149 150 0
c gate 151 -137 -150 0
-137 -151 0
-150 -151 0
137 150 151 0
c gate 152 -132 151 0
-132 -152 0
151 -152 0
132 -151 152 0
c gate 153 -91 -100 0
-91 -153 0
-100 -153 0
91 100 153 0
c gate 154 129 153 0
129 -154 0
153 -154 0
-129 -153 154 0
c gate 155 -152 -154 0
-152 -155 0
-154 -155 0
152 154 155 0
c gate 156 122 155 0
122 -156 0
155 -156 0
-122 -155 156 0
c gate 157 -119 -156 0
-119 -157 0
-156 -157 0
119 156 157 0
c gate 158 -10 26 0
-10 -158 0
26 -158 0
10 -26 158 0
c gate 159 -9 25 0
-9 -159 0
25 -159 0
9 -25 159 0
c gate 160 -4 20 0
-4 -160 0
20 -160 0
4 -20 160 0
c gate 161 41 -160 0
41 -161 0
-160 -161 0
-41 160 161 0
c gate 162 4 -20 0
4 -162 0
-20 -162 0
-4 20 162 0
c gate 163 -66 -79 0
-66 -163 0
-79 -163 0
66 79 163 0
c gate 164 -162 -163 0
-162 -164 0
-163 -164 0
162 163 164 0
c gate 165 -161 164 0
-161 -165 0
164 -165 0
161 -164 165 0
c gate 166 -65 -87 0
-65 -166 0
-87 -166 0
65 87 166 0
c gate 167 -5 21 0
-5 -167 0
21 -167 0
5 -21 167 0
c gate 168 -166 -167 0
-166 -168 0
-167 -168 0
166 167 168 0
c gate 169 -165 168 0
-165 -169 0
168 -169 0
165 -168 169 0
c gate 170 -85 169 0
-85 -170 0
169 -170 0
85 -169 170 0
c gate 171 6 -22 0
6 -171 0
-22 -171 0
-6 22 171 0
c gate 172 -85 171 0
-85 -172 0
171 -172 0
85 -171 172 0
c gate 173 -84 -172 0
-84 -173 0
-172 -173 0
84 172 173 0
c gate 174 -170 173 0
-170 -174 0
173 -174 0
170 -173 174 0
c gate 175 -90 -174 0
-90 -175 0
-174 -175 0
90 174 175 0
c gate 176 8 -24 0
8 -176 0
-24 -176 0
-8 24 176 0
c gate 177 9 -25 0
9 -177 0
-25 -177 0
-9 25 177 0
c gate 178 -176 -177 0
-176 -178 0
-177 -178 0
176 177 178 0
c gate 179 -175 178 0
-175 -179 0
178 -179 0
175 -178 179 0
c gate 180 -159 -179 0
-159 -180 0
-179 -180 0
159 179 180 0
c gate 181 10 -26 0
10 -181 0
-26 -181 0
-10 26 181 0
c gate 182 -158 -181 0
-158 -182 0
-181 -182 0
158 181 182 0
c gate 183 -180 182 0
-180 -183 0
182 -183 0
180 -182 183 0
c gate 184 -158 -183 0
-158 -184 0
-183 -184 0
158 183 184 0
c gate 185 -51 -95 0
-51 -185 0
-95 -185 0
51 95 185 0
c gate 186 -184 -185 0
-184 -186 0
-185 -186 0
184 185 186 0
c gate 187 184 185 0
184 -187 0
185 -187 0
-184 -185 187 0
c gate 188 -186 -187 0
-186 -188 0
-187 -188 0
186 187 188 0
c gate 189 -178 182 0
-178 -189 0
182 -189 0
178 -182 189 0
c gate 190 -181 -189 0
-181 -190 0
-189 -190 0
181 189 190 0
c gate 191 185 -190 0
185 -191 0
-190 -191 0
-185 190 191 0
c gate 192 -188 -191 0
-188 -192 0
-191 -192 0
188 191 192 0
c gate 193 178 -182 0
178 -193 0
-182 -193 0
-178 182 193 0
c gate 194 -189 -193 0
-189 -194 0
-193 -194 0
189 193 194 0
c gate 195 180 -182 0
180 -195 0
-182 -195 0
-180 182 195 0
c gate 196 -183 -195 0
-183 -196 0
-195 -196 0
183 195 196 0
c gate 197 -194 -196 0
-194 -197 0
-196 -197 0
194 196 197 0
c gate 198 194 196 0
194 -198 0
196 -198 0
-194 -196 198 0
c gate 199 -160 164 0
-160 -199 0
164 -199 0
160 -164 199 0
c gate 200 42 199 0
42 -200 0
199 -200 0
-42 -199 200 0
c gate 201 -169 -200 0
-169 -201 0
-200 -201 0
169 200 201 0
c gate 202 86 -166 0
86 -202 0
-166 -202 0
-86 166 202 0
c gate 203 -201 -202 0
-201 -203 0
-202 -203 0
201 202 203 0
c gate 204 -42 157 0
-42 -204 0
157 -204 0
42 -157 204 0
c gate 205 201 -204 0
201 -205 0
-204 -205 0
-201 204 205 0
c gate 206 -203 -205 0
-203 -206 0
-205 -206 0
203 205 206 0
c gate 207 90 173 0
90 -207 0
173 -207 0
-90 -173 207 0
c gate 208 -174 207 0
-174 -208 0
207 -208 0
174 -207 208 0
c gate 209 206 -208 0
206 -209 0
-208 -209 0
-206 208 209 0
c gate 210 -175 -209 0
-175 -210 0
-209 -210 0
175 209 210 0
c gate 211 -159 -177 0
-159 -211 0
-177 -211 0
159 177 211 0
c gate 212 175 -211 0
175 -212 0
-211 -212 0
-175 211 212 0
c gate 213 -210 -212 0
-210 -213 0
-212 -213 0
210 212 213 0
c gate 214 -198 -213 0
-198 -214 0
-213 -214 0
198 213 214 0
c gate 215 -197 -214 0
-197 -215 0
-214 -215 0
197 214 215 0
c gate 216 -192 215 0
-192 -216 0
215 -216 0
192 -215 216 0
c gate 217 188 191 0
188 -217 0
191 -217 0
-188 -191 217 0
c gate 218 -192 -217 0
-192 -218 0
-217 -218 0
192 217 218 0
c gate 219 -184 -218 0
-184 -219 0
-218 -219 0
184 218 219 0
c gate 220 -216 -219 0
-216 -220 0
-219 -220 0
216 219 220 0
c gate 221 -46 -49 0
-46 -221 0
-49 -221 0
46 49 221 0
c gate 222 -98 -111 0
-98 -222 0
-111 -222 0
98 111 222 0
c gate 223 -145 222 0
-145 -223 0
222 -223 0
145 -222 223 0
c gate 224 221 223 0
221 -224 0
223 -224 0
-221 -223 224 0
c gate 225 186 224 0
186 -225 0
224 -225 0
-186 -224 225 0
c gate 226 -220 -225 0
-220 -226 0
-225 -226 0
220 225 226 0
c gate 227 157 226 0
157 -227 0
226 -227 0
-157 -226 227 0
c gate 228 89 -131 0
89 -228 0
-131 -228 0
-89 131 228 0
c gate 229 -100 -228 0
-100 -229 0
-228 -229 0
100 228 229 0
c gate 230 129 229 0
129 -230 0
229 -230 0
-129 -229 230 0
c gate 231 151 -230 0
151 -231 0
-230 -231 0
-151 230 231 0
c gate 232 122 -231 0
122 -232 0
-231 -232 0
-122 231 232 0
c gate 233 -119 -232 0
-119 -233 0
-232 -233 0
119 232 233 0
c gate 234 -226 -233 0
-226 -234 0
-233 -234 0
226 233 234 0
c gate 235 -227 -234 0
-227 -235 0
-234 -235 0
227 234 235 0
c gate 236 42 -235 0
42 -236 0
-235 -236 0
-42 235 236 0
c gate 237 -42 235 0
-42 -237 0
235 -237 0
42 -235 237 0
c gate 238 -236 -237 0
-236 -238 0
-237 -238 0
236 237 238 0
c PO
-238 0
